c Random Network
p min 10 20
n 1 1
n 10 -1
c Transformed from a max-flow problem.
a 	 1	7	0	11	0
a 	 5	9	0	46	0
a 	 2	4	0	1	0
a 	 1	2	0	48	0
a 	 4	1	0	42	0
a 	 7	1	0	33	0
a 	 9	3	0	29	0
a 	 6	1	0	10	0
a 	 2	8	0	14	0
a 	 4	3	0	1	0
a 	 8	3	0	38	0
a 	 2	3	0	2	0
a 	 3	4	0	33	0
a 	 1	3	0	10	0
a 	 10	1	0	49	0
a 	 3	2	0	25	0
a 	 5	7	0	13	0
a 	 6	3	0	45	0
a 	 3	7	0	43	0
a 	 7	10	0	5	0
